(set-logic HORN)
(declare-fun inv ((_ BitVec 32) (_ BitVec 32) (_ BitVec 32) ) Bool)
(assert (forall ((i (_ BitVec 32)) (j (_ BitVec 32)) (k (_ BitVec 32))) 
       (=> ( and ( = i (_ bv1 32) ) ( = j (_ bv1 32) ) ( bvule (_ bv0 32) k ) ( bvule k (_ bv1 32) ) ) (inv i j k))))
(assert (forall ((i (_ BitVec 32)) (j (_ BitVec 32)) (k (_ BitVec 32)) (i! (_ BitVec 32)) (j! (_ BitVec 32)) (k! (_ BitVec 32))) 
       (=> (and (inv i j k) ( and ( bvult i (_ bv1000000 32) ) ( = i! ( bvadd i (_ bv1 32) ) ) ( = j! ( bvadd j k ) ) ( = k! ( bvsub k (_ bv1 32) ) ) )) (inv i! j! k!))))
(assert (forall ((i (_ BitVec 32)) (j (_ BitVec 32)) (k (_ BitVec 32))) 
       (=> (inv i j k) ( or ( not ( bvult i (_ bv1000000 32) ) ) ( and ( bvule (_ bv1 32) ( bvadd i k ) ) ( bvule ( bvadd i k ) (_ bv2 32) ) ( bvuge i (_ bv1 32) ) ) ))))
(check-sat)
